(set-logic QF_FP)
(set-option :produce-models true)
(set-info :source |Random FP created by PyMPF|)
(set-info :category random)
(set-info :status unsat)
(declare-const x Float32)
(assert (= x (fp #b0 #b00000000 #b11111111111111111111111)))
(declare-const y Float32)
(assert (= y ((_ to_fp 8 24) #x807FFFFF)))
(declare-const z Float32)
(assert (= z (fp #b1 #b00110110 #b00000100101011001110010)))
(declare-const result Float32)
(assert (= result (fp.fma RTN x y z)))
(assert (not (= result ((_ to_fp 8 24) #x9B025673))))
(check-sat)
(exit)
